7 7
   0 107 241 190 124  80 316
 107   0 148 137  88 127 336
 241 148   0 374 171 259 509
 190 137 374   0 202 234 222
 124  88 171 202   0  61 392
  80 127 259 234  61   0 386
 316 336 509 222 392 386   0